Minimize
  0 [c,_t3@r1] + 0 [r,_t3@r1] + 0 [j^in,_t3@r1] + 0 [j^out,_t3@r1]
   + 0 [d,_t3@r1] + 0 [c,_t4@r2] + 0 [r,_t4@r2] + 0 [j^in,_t4@r2]
   + 0 [j^out,_t4@r2] + 0 [d,_t4@r2] + 0 [c,_t2@can] + 0 [r,_t2@can]
   + 0 [j^in,_t2@can] + 0 [j^out,_t2@can] + 0 [d,_t2@can] + 0 [c,_t5@r1]
   + 0 [r,_t5@r1] + 0 [j^in,_t5@r1] + 0 [j^out,_t5@r1] + 0 [d,_t5@r1]
   + 0 [c,_t9@r3] + 0 [r,_t9@r3] + 0 [j^in,_t9@r3] + 0 [j^out,_t9@r3]
   + 0 [d,_t9@r3] + 0 [c,_t8@r3] + 0 [r,_t8@r3] + 0 [j^in,_t8@r3]
   + 0 [j^out,_t8@r3] + 0 [d,_t8@r3] + 0 [c,_t10@can] + 0 [r,_t10@can]
   + 0 [j^in,_t10@can] + 0 [j^out,_t10@can] + 0 [d,_t10@can]
   + 0 [c,_t12@r2] + 0 [r,_t12@r2] + 0 [j^in,_t12@r2] + 0 [j^out,_t12@r2]
   + 0 [d,_t12@r2] + 0 [c,_t11@can] + 0 [r,_t11@can] + 0 [j^in,_t11@can]
   + 0 [j^out,_t11@can] + 0 [d,_t11@can] + 0 [c,_t7@can] + 0 [r,_t7@can]
   + 0 [j^in,_t7@can] + 0 [j^out,_t7@can] + 0 [d,_t7@can] + 0 [c,_t1@r3]
   + 0 [r,_t1@r3] + 0 [j^in,_t1@r3] + 0 [j^out,_t1@r3] + 0 [d,_t1@r3]
   + 0 [c,_t6@can] + 0 [r,_t6@can] + 0 [j^in,_t6@can] + 0 [j^out,_t6@can]
   + 0 [d,_t6@can] + 0 [a,_TimingDependency_[id=22]] + 0 [i,_t4@r2,_t12@r2]
   + 0 [a,_TimingDependency_[id=23]] + 0 [i,_t12@r2,_t4@r2]
   + 0 [a,_TimingDependency_[id=44]] + 0 [i,_t6@can,_t7@can]
   + 0 [a,_TimingDependency_[id=45]] + 0 [i,_t7@can,_t6@can]
   + 0 [a,_TimingDependency_[id=46]] + 0 [i,_t6@can,_t11@can]
   + 0 [a,_TimingDependency_[id=47]] + 0 [i,_t11@can,_t6@can]
   + 0 [a,_TimingDependency_[id=48]] + 0 [i,_t6@can,_t2@can]
   + 0 [a,_TimingDependency_[id=49]] + 0 [i,_t2@can,_t6@can]
   + 0 [a,_TimingDependency_[id=50]] + 0 [i,_t10@can,_t7@can]
   + 0 [a,_TimingDependency_[id=51]] + 0 [i,_t7@can,_t10@can]
   + 0 [a,_TimingDependency_[id=52]] + 0 [i,_t10@can,_t11@can]
   + 0 [a,_TimingDependency_[id=53]] + 0 [i,_t11@can,_t10@can]
   + 0 [a,_TimingDependency_[id=54]] + 0 [i,_t10@can,_t2@can]
   + 0 [a,_TimingDependency_[id=55]] + 0 [i,_t2@can,_t10@can]
   + 0 [a,_TimingDependency_[id=58]] + 0 [i,_t7@can,_t2@can]
   + 0 [a,_TimingDependency_[id=59]] + 0 [i,_t2@can,_t7@can]
   + 0 [a,_TimingDependency_[id=60]] + 0 [i,_t11@can,_t2@can]
   + 0 [a,_TimingDependency_[id=61]] + 0 [i,_t2@can,_t11@can]
   + 0 [a,_TimingDependency_[id=62]] + 0 [i,_t8@r3,_t9@r3]
   + 0 [a,_TimingDependency_[id=63]] + 0 [i,_t9@r3,_t8@r3]
   + 0 [a,_TimingDependency_[id=64]] + 0 [i,_t8@r3,_t1@r3]
   + 0 [a,_TimingDependency_[id=65]] + 0 [i,_t1@r3,_t8@r3]
   + 0 [a,_TimingDependency_[id=76]] + 0 [i,_t9@r3,_t1@r3]
   + 0 [a,_TimingDependency_[id=77]] + 0 [i,_t1@r3,_t9@r3]
   + 0 [a,_TimingDependency_[id=118]] + 0 [i,_t5@r1,_t3@r1]
   + 0 [a,_TimingDependency_[id=119]] + 0 [i,_t3@r1,_t5@r1] + 0 [b,_t2@can]
   + 0 [b,_t10@can] + 0 [b,_t11@can] + 0 [b,_t7@can] + 0 [b,_t6@can]
Subject To
Bounds
 [c,_t3@r1] <= 1000
 [r,_t3@r1] <= 1000
 [j^in,_t3@r1] <= 1000
 [j^out,_t3@r1] <= 1000
 [d,_t3@r1] <= 1000
 [c,_t4@r2] <= 1000
 [r,_t4@r2] <= 1000
 [j^in,_t4@r2] <= 1000
 [j^out,_t4@r2] <= 1000
 [d,_t4@r2] <= 1000
 [c,_t2@can] <= 1000
 [r,_t2@can] <= 1000
 [j^in,_t2@can] <= 1000
 [j^out,_t2@can] <= 1000
 [d,_t2@can] <= 1000
 [c,_t5@r1] <= 1000
 [r,_t5@r1] <= 1000
 [j^in,_t5@r1] <= 1000
 [j^out,_t5@r1] <= 1000
 [d,_t5@r1] <= 1000
 [c,_t9@r3] <= 1000
 [r,_t9@r3] <= 1000
 [j^in,_t9@r3] <= 1000
 [j^out,_t9@r3] <= 1000
 [d,_t9@r3] <= 1000
 [c,_t8@r3] <= 1000
 [r,_t8@r3] <= 1000
 [j^in,_t8@r3] <= 1000
 [j^out,_t8@r3] <= 1000
 [d,_t8@r3] <= 1000
 [c,_t10@can] <= 1000
 [r,_t10@can] <= 1000
 [j^in,_t10@can] <= 1000
 [j^out,_t10@can] <= 1000
 [d,_t10@can] <= 1000
 [c,_t12@r2] <= 1000
 [r,_t12@r2] <= 1000
 [j^in,_t12@r2] <= 1000
 [j^out,_t12@r2] <= 1000
 [d,_t12@r2] <= 1000
 [c,_t11@can] <= 1000
 [r,_t11@can] <= 1000
 [j^in,_t11@can] <= 1000
 [j^out,_t11@can] <= 1000
 [d,_t11@can] <= 1000
 [c,_t7@can] <= 1000
 [r,_t7@can] <= 1000
 [j^in,_t7@can] <= 1000
 [j^out,_t7@can] <= 1000
 [d,_t7@can] <= 1000
 [c,_t1@r3] <= 1000
 [r,_t1@r3] <= 1000
 [j^in,_t1@r3] <= 1000
 [j^out,_t1@r3] <= 1000
 [d,_t1@r3] <= 1000
 [c,_t6@can] <= 1000
 [r,_t6@can] <= 1000
 [j^in,_t6@can] <= 1000
 [j^out,_t6@can] <= 1000
 [d,_t6@can] <= 1000
 [a,_TimingDependency_[id=22]] free
 [i,_t4@r2,_t12@r2] <= 1000
 [a,_TimingDependency_[id=23]] free
 [i,_t12@r2,_t4@r2] <= 1000
 [a,_TimingDependency_[id=44]] free
 [i,_t6@can,_t7@can] <= 1000
 [a,_TimingDependency_[id=45]] free
 [i,_t7@can,_t6@can] <= 1000
 [a,_TimingDependency_[id=46]] free
 [i,_t6@can,_t11@can] <= 1000
 [a,_TimingDependency_[id=47]] free
 [i,_t11@can,_t6@can] <= 1000
 [a,_TimingDependency_[id=48]] free
 [i,_t6@can,_t2@can] <= 1000
 [a,_TimingDependency_[id=49]] free
 [i,_t2@can,_t6@can] <= 1000
 [a,_TimingDependency_[id=50]] free
 [i,_t10@can,_t7@can] <= 1000
 [a,_TimingDependency_[id=51]] free
 [i,_t7@can,_t10@can] <= 1000
 [a,_TimingDependency_[id=52]] free
 [i,_t10@can,_t11@can] <= 1000
 [a,_TimingDependency_[id=53]] free
 [i,_t11@can,_t10@can] <= 1000
 [a,_TimingDependency_[id=54]] free
 [i,_t10@can,_t2@can] <= 1000
 [a,_TimingDependency_[id=55]] free
 [i,_t2@can,_t10@can] <= 1000
 [a,_TimingDependency_[id=58]] free
 [i,_t7@can,_t2@can] <= 1000
 [a,_TimingDependency_[id=59]] free
 [i,_t2@can,_t7@can] <= 1000
 [a,_TimingDependency_[id=60]] free
 [i,_t11@can,_t2@can] <= 1000
 [a,_TimingDependency_[id=61]] free
 [i,_t2@can,_t11@can] <= 1000
 [a,_TimingDependency_[id=62]] free
 [i,_t8@r3,_t9@r3] <= 1000
 [a,_TimingDependency_[id=63]] free
 [i,_t9@r3,_t8@r3] <= 1000
 [a,_TimingDependency_[id=64]] free
 [i,_t8@r3,_t1@r3] <= 1000
 [a,_TimingDependency_[id=65]] free
 [i,_t1@r3,_t8@r3] <= 1000
 [a,_TimingDependency_[id=76]] free
 [i,_t9@r3,_t1@r3] <= 1000
 [a,_TimingDependency_[id=77]] free
 [i,_t1@r3,_t9@r3] <= 1000
 [a,_TimingDependency_[id=118]] free
 [i,_t5@r1,_t3@r1] <= 1000
 [a,_TimingDependency_[id=119]] free
 [i,_t3@r1,_t5@r1] <= 1000
 [b,_t2@can] <= 1000
 [b,_t10@can] <= 1000
 [b,_t11@can] <= 1000
 [b,_t7@can] <= 1000
 [b,_t6@can] <= 1000
Binaries
 [a,_TimingDependency_[id=22]] [a,_TimingDependency_[id=23]]
 [a,_TimingDependency_[id=44]] [a,_TimingDependency_[id=45]]
 [a,_TimingDependency_[id=46]] [a,_TimingDependency_[id=47]]
 [a,_TimingDependency_[id=48]] [a,_TimingDependency_[id=49]]
 [a,_TimingDependency_[id=50]] [a,_TimingDependency_[id=51]]
 [a,_TimingDependency_[id=52]] [a,_TimingDependency_[id=53]]
 [a,_TimingDependency_[id=54]] [a,_TimingDependency_[id=55]]
 [a,_TimingDependency_[id=58]] [a,_TimingDependency_[id=59]]
 [a,_TimingDependency_[id=60]] [a,_TimingDependency_[id=61]]
 [a,_TimingDependency_[id=62]] [a,_TimingDependency_[id=63]]
 [a,_TimingDependency_[id=64]] [a,_TimingDependency_[id=65]]
 [a,_TimingDependency_[id=76]] [a,_TimingDependency_[id=77]]
 [a,_TimingDependency_[id=118]] [a,_TimingDependency_[id=119]]
Generals
 [i,_t4@r2,_t12@r2] [i,_t12@r2,_t4@r2] [i,_t6@can,_t7@can]
 [i,_t7@can,_t6@can] [i,_t6@can,_t11@can] [i,_t11@can,_t6@can]
 [i,_t6@can,_t2@can] [i,_t2@can,_t6@can] [i,_t10@can,_t7@can]
 [i,_t7@can,_t10@can] [i,_t10@can,_t11@can] [i,_t11@can,_t10@can]
 [i,_t10@can,_t2@can] [i,_t2@can,_t10@can] [i,_t7@can,_t2@can]
 [i,_t2@can,_t7@can] [i,_t11@can,_t2@can] [i,_t2@can,_t11@can]
 [i,_t8@r3,_t9@r3] [i,_t9@r3,_t8@r3] [i,_t8@r3,_t1@r3] [i,_t1@r3,_t8@r3]
 [i,_t9@r3,_t1@r3] [i,_t1@r3,_t9@r3] [i,_t5@r1,_t3@r1] [i,_t3@r1,_t5@r1]
End
